; Benchmark for LTL-sketching problem
(set-logic QF_UF)
(set-info :status unknown)
(declare-fun z_0_0 () Bool)
(declare-fun z_0_1 () Bool)
(declare-fun z_0_5 () Bool)
(declare-fun z_0_10 () Bool)
(declare-fun z_0_20 () Bool)
(declare-fun z_0_31 () Bool)
(declare-fun z_0_33 () Bool)
(declare-fun z_0_39 () Bool)
(declare-fun z_0_51 () Bool)
(declare-fun z_0_58 () Bool)
(declare-fun z_0_70 () Bool)
(declare-fun z_0_74 () Bool)
(declare-fun z_0_79 () Bool)
(declare-fun z_0_88 () Bool)
(declare-fun z_0_100 () Bool)
(declare-fun z_0_108 () Bool)
(declare-fun z_0_110 () Bool)
(declare-fun z_0_115 () Bool)
(declare-fun z_0_120 () Bool)
(declare-fun z_0_125 () Bool)
(declare-fun z_0_133 () Bool)
(declare-fun z_0_134 () Bool)
(declare-fun z_0_139 () Bool)
(declare-fun z_0_145 () Bool)
(declare-fun z_0_149 () Bool)
(declare-fun z_2_0 () Bool)
(declare-fun z_2_9 () Bool)
(declare-fun z_2_8 () Bool)
(declare-fun z_2_7 () Bool)
(declare-fun z_2_6 () Bool)
(declare-fun z_2_5 () Bool)
(declare-fun z_2_4 () Bool)
(declare-fun z_2_3 () Bool)
(declare-fun z_2_2 () Bool)
(declare-fun z_2_1 () Bool)
(declare-fun z_0_2 () Bool)
(declare-fun z_0_3 () Bool)
(declare-fun z_0_4 () Bool)
(declare-fun z_0_6 () Bool)
(declare-fun z_0_7 () Bool)
(declare-fun z_0_8 () Bool)
(declare-fun z_0_9 () Bool)
(declare-fun z_2_19 () Bool)
(declare-fun z_2_18 () Bool)
(declare-fun z_2_17 () Bool)
(declare-fun z_2_16 () Bool)
(declare-fun z_2_15 () Bool)
(declare-fun z_2_14 () Bool)
(declare-fun z_2_13 () Bool)
(declare-fun z_2_12 () Bool)
(declare-fun z_2_11 () Bool)
(declare-fun z_2_10 () Bool)
(declare-fun z_0_11 () Bool)
(declare-fun z_0_12 () Bool)
(declare-fun z_0_13 () Bool)
(declare-fun z_0_14 () Bool)
(declare-fun z_0_15 () Bool)
(declare-fun z_0_16 () Bool)
(declare-fun z_0_17 () Bool)
(declare-fun z_0_18 () Bool)
(declare-fun z_0_19 () Bool)
(declare-fun z_2_30 () Bool)
(declare-fun z_2_29 () Bool)
(declare-fun z_2_28 () Bool)
(declare-fun z_2_27 () Bool)
(declare-fun z_2_26 () Bool)
(declare-fun z_2_25 () Bool)
(declare-fun z_2_24 () Bool)
(declare-fun z_2_23 () Bool)
(declare-fun z_2_22 () Bool)
(declare-fun z_2_21 () Bool)
(declare-fun z_2_20 () Bool)
(declare-fun z_0_21 () Bool)
(declare-fun z_0_22 () Bool)
(declare-fun z_0_23 () Bool)
(declare-fun z_0_24 () Bool)
(declare-fun z_0_25 () Bool)
(declare-fun z_0_26 () Bool)
(declare-fun z_0_27 () Bool)
(declare-fun z_0_28 () Bool)
(declare-fun z_0_29 () Bool)
(declare-fun z_0_30 () Bool)
(declare-fun z_2_32 () Bool)
(declare-fun z_2_31 () Bool)
(declare-fun z_0_32 () Bool)
(declare-fun z_2_38 () Bool)
(declare-fun z_2_37 () Bool)
(declare-fun z_2_36 () Bool)
(declare-fun z_2_35 () Bool)
(declare-fun z_2_34 () Bool)
(declare-fun z_2_33 () Bool)
(declare-fun z_0_34 () Bool)
(declare-fun z_0_35 () Bool)
(declare-fun z_0_36 () Bool)
(declare-fun z_0_37 () Bool)
(declare-fun z_0_38 () Bool)
(declare-fun z_2_50 () Bool)
(declare-fun z_2_49 () Bool)
(declare-fun z_2_48 () Bool)
(declare-fun z_2_47 () Bool)
(declare-fun z_2_46 () Bool)
(declare-fun z_2_45 () Bool)
(declare-fun z_2_44 () Bool)
(declare-fun z_2_43 () Bool)
(declare-fun z_2_42 () Bool)
(declare-fun z_2_41 () Bool)
(declare-fun z_2_40 () Bool)
(declare-fun z_2_39 () Bool)
(declare-fun z_0_40 () Bool)
(declare-fun z_0_41 () Bool)
(declare-fun z_0_42 () Bool)
(declare-fun z_0_43 () Bool)
(declare-fun z_0_44 () Bool)
(declare-fun z_0_45 () Bool)
(declare-fun z_0_46 () Bool)
(declare-fun z_0_47 () Bool)
(declare-fun z_0_48 () Bool)
(declare-fun z_0_49 () Bool)
(declare-fun z_0_50 () Bool)
(declare-fun z_2_57 () Bool)
(declare-fun z_2_56 () Bool)
(declare-fun z_2_55 () Bool)
(declare-fun z_2_54 () Bool)
(declare-fun z_2_53 () Bool)
(declare-fun z_2_52 () Bool)
(declare-fun z_2_51 () Bool)
(declare-fun z_0_52 () Bool)
(declare-fun z_0_53 () Bool)
(declare-fun z_0_54 () Bool)
(declare-fun z_0_55 () Bool)
(declare-fun z_0_56 () Bool)
(declare-fun z_0_57 () Bool)
(declare-fun z_2_69 () Bool)
(declare-fun z_2_68 () Bool)
(declare-fun z_2_67 () Bool)
(declare-fun z_2_66 () Bool)
(declare-fun z_2_65 () Bool)
(declare-fun z_2_64 () Bool)
(declare-fun z_2_63 () Bool)
(declare-fun z_2_62 () Bool)
(declare-fun z_2_61 () Bool)
(declare-fun z_2_60 () Bool)
(declare-fun z_2_59 () Bool)
(declare-fun z_2_58 () Bool)
(declare-fun z_0_59 () Bool)
(declare-fun z_0_60 () Bool)
(declare-fun z_0_61 () Bool)
(declare-fun z_0_62 () Bool)
(declare-fun z_0_63 () Bool)
(declare-fun z_0_64 () Bool)
(declare-fun z_0_65 () Bool)
(declare-fun z_0_66 () Bool)
(declare-fun z_0_67 () Bool)
(declare-fun z_0_68 () Bool)
(declare-fun z_0_69 () Bool)
(declare-fun z_2_73 () Bool)
(declare-fun z_2_72 () Bool)
(declare-fun z_2_71 () Bool)
(declare-fun z_2_70 () Bool)
(declare-fun z_0_71 () Bool)
(declare-fun z_0_72 () Bool)
(declare-fun z_0_73 () Bool)
(declare-fun z_2_78 () Bool)
(declare-fun z_2_77 () Bool)
(declare-fun z_2_76 () Bool)
(declare-fun z_2_75 () Bool)
(declare-fun z_2_74 () Bool)
(declare-fun z_0_75 () Bool)
(declare-fun z_0_76 () Bool)
(declare-fun z_0_77 () Bool)
(declare-fun z_0_78 () Bool)
(declare-fun z_2_87 () Bool)
(declare-fun z_2_86 () Bool)
(declare-fun z_2_85 () Bool)
(declare-fun z_2_84 () Bool)
(declare-fun z_2_83 () Bool)
(declare-fun z_2_82 () Bool)
(declare-fun z_2_81 () Bool)
(declare-fun z_2_80 () Bool)
(declare-fun z_2_79 () Bool)
(declare-fun z_0_80 () Bool)
(declare-fun z_0_81 () Bool)
(declare-fun z_0_82 () Bool)
(declare-fun z_0_83 () Bool)
(declare-fun z_0_84 () Bool)
(declare-fun z_0_85 () Bool)
(declare-fun z_0_86 () Bool)
(declare-fun z_0_87 () Bool)
(declare-fun z_2_99 () Bool)
(declare-fun z_2_98 () Bool)
(declare-fun z_2_97 () Bool)
(declare-fun z_2_96 () Bool)
(declare-fun z_2_95 () Bool)
(declare-fun z_2_94 () Bool)
(declare-fun z_2_93 () Bool)
(declare-fun z_2_92 () Bool)
(declare-fun z_2_91 () Bool)
(declare-fun z_2_90 () Bool)
(declare-fun z_2_89 () Bool)
(declare-fun z_2_88 () Bool)
(declare-fun z_0_89 () Bool)
(declare-fun z_0_90 () Bool)
(declare-fun z_0_91 () Bool)
(declare-fun z_0_92 () Bool)
(declare-fun z_0_93 () Bool)
(declare-fun z_0_94 () Bool)
(declare-fun z_0_95 () Bool)
(declare-fun z_0_96 () Bool)
(declare-fun z_0_97 () Bool)
(declare-fun z_0_98 () Bool)
(declare-fun z_0_99 () Bool)
(declare-fun z_2_109 () Bool)
(declare-fun z_2_108 () Bool)
(declare-fun z_2_107 () Bool)
(declare-fun z_2_106 () Bool)
(declare-fun z_2_105 () Bool)
(declare-fun z_2_104 () Bool)
(declare-fun z_2_103 () Bool)
(declare-fun z_2_102 () Bool)
(declare-fun z_2_101 () Bool)
(declare-fun z_2_100 () Bool)
(declare-fun z_0_101 () Bool)
(declare-fun z_0_102 () Bool)
(declare-fun z_0_103 () Bool)
(declare-fun z_0_104 () Bool)
(declare-fun z_0_105 () Bool)
(declare-fun z_0_106 () Bool)
(declare-fun z_0_107 () Bool)
(declare-fun z_0_109 () Bool)
(declare-fun z_2_114 () Bool)
(declare-fun z_2_113 () Bool)
(declare-fun z_2_112 () Bool)
(declare-fun z_2_111 () Bool)
(declare-fun z_2_110 () Bool)
(declare-fun z_0_111 () Bool)
(declare-fun z_0_112 () Bool)
(declare-fun z_0_113 () Bool)
(declare-fun z_0_114 () Bool)
(declare-fun z_2_119 () Bool)
(declare-fun z_2_118 () Bool)
(declare-fun z_2_117 () Bool)
(declare-fun z_2_116 () Bool)
(declare-fun z_2_115 () Bool)
(declare-fun z_0_116 () Bool)
(declare-fun z_0_117 () Bool)
(declare-fun z_0_118 () Bool)
(declare-fun z_0_119 () Bool)
(declare-fun z_2_124 () Bool)
(declare-fun z_2_123 () Bool)
(declare-fun z_2_122 () Bool)
(declare-fun z_2_121 () Bool)
(declare-fun z_2_120 () Bool)
(declare-fun z_0_121 () Bool)
(declare-fun z_0_122 () Bool)
(declare-fun z_0_123 () Bool)
(declare-fun z_0_124 () Bool)
(declare-fun z_2_132 () Bool)
(declare-fun z_2_131 () Bool)
(declare-fun z_2_130 () Bool)
(declare-fun z_2_129 () Bool)
(declare-fun z_2_128 () Bool)
(declare-fun z_2_127 () Bool)
(declare-fun z_2_126 () Bool)
(declare-fun z_2_125 () Bool)
(declare-fun z_0_126 () Bool)
(declare-fun z_0_127 () Bool)
(declare-fun z_0_128 () Bool)
(declare-fun z_0_129 () Bool)
(declare-fun z_0_130 () Bool)
(declare-fun z_0_131 () Bool)
(declare-fun z_0_132 () Bool)
(declare-fun z_2_133 () Bool)
(declare-fun z_2_138 () Bool)
(declare-fun z_2_137 () Bool)
(declare-fun z_2_136 () Bool)
(declare-fun z_2_135 () Bool)
(declare-fun z_2_134 () Bool)
(declare-fun z_0_135 () Bool)
(declare-fun z_0_136 () Bool)
(declare-fun z_0_137 () Bool)
(declare-fun z_0_138 () Bool)
(declare-fun z_2_144 () Bool)
(declare-fun z_2_143 () Bool)
(declare-fun z_2_142 () Bool)
(declare-fun z_2_141 () Bool)
(declare-fun z_2_140 () Bool)
(declare-fun z_2_139 () Bool)
(declare-fun z_0_140 () Bool)
(declare-fun z_0_141 () Bool)
(declare-fun z_0_142 () Bool)
(declare-fun z_0_143 () Bool)
(declare-fun z_0_144 () Bool)
(declare-fun z_2_148 () Bool)
(declare-fun z_2_147 () Bool)
(declare-fun z_2_146 () Bool)
(declare-fun z_2_145 () Bool)
(declare-fun z_0_146 () Bool)
(declare-fun z_0_147 () Bool)
(declare-fun z_0_148 () Bool)
(declare-fun z_2_157 () Bool)
(declare-fun z_2_156 () Bool)
(declare-fun z_2_155 () Bool)
(declare-fun z_2_154 () Bool)
(declare-fun z_2_153 () Bool)
(declare-fun z_2_152 () Bool)
(declare-fun z_2_151 () Bool)
(declare-fun z_2_150 () Bool)
(declare-fun z_2_149 () Bool)
(declare-fun z_0_150 () Bool)
(declare-fun z_0_151 () Bool)
(declare-fun z_0_152 () Bool)
(declare-fun z_0_153 () Bool)
(declare-fun z_0_154 () Bool)
(declare-fun z_0_155 () Bool)
(declare-fun z_0_156 () Bool)
(declare-fun z_0_157 () Bool)
(declare-fun x_2_p () Bool)
(declare-fun x_2_-> () Bool)
(declare-fun x_2_U () Bool)
(declare-fun x_2_v () Bool)
(declare-fun x_2_& () Bool)
(declare-fun x_2_X () Bool)
(declare-fun x_2_! () Bool)
(declare-fun x_2_F () Bool)
(declare-fun x_2_G () Bool)
(assert
 z_0_0)
(assert
 (not z_0_1))
(assert
 (not z_0_5))
(assert
 (not z_0_10))
(assert
 (not z_0_20))
(assert
 (not z_0_31))
(assert
 (not z_0_33))
(assert
 (not z_0_39))
(assert
 (not z_0_51))
(assert
 (not z_0_58))
(assert
 (not z_0_70))
(assert
 (not z_0_74))
(assert
 (not z_0_79))
(assert
 (not z_0_88))
(assert
 (not z_0_100))
(assert
 (not z_0_108))
(assert
 (not z_0_110))
(assert
 (not z_0_115))
(assert
 (not z_0_120))
(assert
 (not z_0_125))
(assert
 (not z_0_133))
(assert
 (not z_0_134))
(assert
 (not z_0_139))
(assert
 (not z_0_145))
(assert
 (not z_0_149))
(assert
 (= z_0_0 (and z_2_0)))
(assert
 (let (($x3543 (and z_2_1 z_2_2 z_2_3 z_2_4 z_2_5 z_2_6 z_2_7 z_2_8 z_2_9)))
 (= z_0_1 $x3543)))
(assert
 (= z_0_2 (and z_2_2 z_2_3 z_2_4 z_2_5 z_2_6 z_2_7 z_2_8 z_2_9)))
(assert
 (= z_0_3 (and z_2_3 z_2_4 z_2_5 z_2_6 z_2_7 z_2_8 z_2_9)))
(assert
 (= z_0_4 (and z_2_4 z_2_5 z_2_6 z_2_7 z_2_8 z_2_9)))
(assert
 (= z_0_5 (and z_2_5 z_2_6 z_2_7 z_2_8 z_2_9)))
(assert
 (= z_0_6 (and z_2_6 z_2_7 z_2_8 z_2_9 z_2_5)))
(assert
 (= z_0_7 (and z_2_7 z_2_8 z_2_9 z_2_5 z_2_6)))
(assert
 (= z_0_8 (and z_2_8 z_2_9 z_2_5 z_2_6 z_2_7)))
(assert
 (= z_0_9 (and z_2_9 z_2_5 z_2_6 z_2_7 z_2_8)))
(assert
 (let (($x3571 (and z_2_10 z_2_11 z_2_12 z_2_13 z_2_14 z_2_15 z_2_16 z_2_17 z_2_18 z_2_19)))
 (= z_0_10 $x3571)))
(assert
 (let (($x3573 (and z_2_11 z_2_12 z_2_13 z_2_14 z_2_15 z_2_16 z_2_17 z_2_18 z_2_19)))
 (= z_0_11 $x3573)))
(assert
 (let (($x3575 (and z_2_12 z_2_13 z_2_14 z_2_15 z_2_16 z_2_17 z_2_18 z_2_19)))
 (= z_0_12 $x3575)))
(assert
 (= z_0_13 (and z_2_13 z_2_14 z_2_15 z_2_16 z_2_17 z_2_18 z_2_19)))
(assert
 (= z_0_14 (and z_2_14 z_2_15 z_2_16 z_2_17 z_2_18 z_2_19)))
(assert
 (= z_0_15 (and z_2_15 z_2_16 z_2_17 z_2_18 z_2_19)))
(assert
 (= z_0_16 (and z_2_16 z_2_17 z_2_18 z_2_19)))
(assert
 (= z_0_17 (and z_2_17 z_2_18 z_2_19 z_2_16)))
(assert
 (= z_0_18 (and z_2_18 z_2_19 z_2_16 z_2_17)))
(assert
 (= z_0_19 (and z_2_19 z_2_16 z_2_17 z_2_18)))
(assert
 (let (($x3602 (and z_2_20 z_2_21 z_2_22 z_2_23 z_2_24 z_2_25 z_2_26 z_2_27 z_2_28 z_2_29 z_2_30)))
 (= z_0_20 $x3602)))
(assert
 (let (($x3604 (and z_2_21 z_2_22 z_2_23 z_2_24 z_2_25 z_2_26 z_2_27 z_2_28 z_2_29 z_2_30)))
 (= z_0_21 $x3604)))
(assert
 (let (($x3606 (and z_2_22 z_2_23 z_2_24 z_2_25 z_2_26 z_2_27 z_2_28 z_2_29 z_2_30)))
 (= z_0_22 $x3606)))
(assert
 (let (($x3608 (and z_2_23 z_2_24 z_2_25 z_2_26 z_2_27 z_2_28 z_2_29 z_2_30)))
 (= z_0_23 $x3608)))
(assert
 (= z_0_24 (and z_2_24 z_2_25 z_2_26 z_2_27 z_2_28 z_2_29 z_2_30)))
(assert
 (= z_0_25 (and z_2_25 z_2_26 z_2_27 z_2_28 z_2_29 z_2_30)))
(assert
 (= z_0_26 (and z_2_26 z_2_27 z_2_28 z_2_29 z_2_30 z_2_25)))
(assert
 (= z_0_27 (and z_2_27 z_2_28 z_2_29 z_2_30 z_2_25 z_2_26)))
(assert
 (= z_0_28 (and z_2_28 z_2_29 z_2_30 z_2_25 z_2_26 z_2_27)))
(assert
 (= z_0_29 (and z_2_29 z_2_30 z_2_25 z_2_26 z_2_27 z_2_28)))
(assert
 (= z_0_30 (and z_2_30 z_2_25 z_2_26 z_2_27 z_2_28 z_2_29)))
(assert
 (let (($x3626 (and z_2_31 z_2_32 z_2_3 z_2_4 z_2_5 z_2_6 z_2_7 z_2_8 z_2_9)))
 (= z_0_31 $x3626)))
(assert
 (= z_0_32 (and z_2_32 z_2_3 z_2_4 z_2_5 z_2_6 z_2_7 z_2_8 z_2_9)))
(assert
 (= z_0_33 (and z_2_33 z_2_34 z_2_35 z_2_36 z_2_37 z_2_38)))
(assert
 (= z_0_34 (and z_2_34 z_2_35 z_2_36 z_2_37 z_2_38)))
(assert
 (= z_0_35 (and z_2_35 z_2_36 z_2_37 z_2_38 z_2_34)))
(assert
 (= z_0_36 (and z_2_36 z_2_37 z_2_38 z_2_34 z_2_35)))
(assert
 (= z_0_37 (and z_2_37 z_2_38 z_2_34 z_2_35 z_2_36)))
(assert
 (= z_0_38 (and z_2_38 z_2_34 z_2_35 z_2_36 z_2_37)))
(assert
 (let (($x3660 (and z_2_39 z_2_40 z_2_41 z_2_42 z_2_43 z_2_44 z_2_45 z_2_46 z_2_47 z_2_48 z_2_49 z_2_50)))
 (= z_0_39 $x3660)))
(assert
 (let (($x3662 (and z_2_40 z_2_41 z_2_42 z_2_43 z_2_44 z_2_45 z_2_46 z_2_47 z_2_48 z_2_49 z_2_50)))
 (= z_0_40 $x3662)))
(assert
 (let (($x3664 (and z_2_41 z_2_42 z_2_43 z_2_44 z_2_45 z_2_46 z_2_47 z_2_48 z_2_49 z_2_50)))
 (= z_0_41 $x3664)))
(assert
 (let (($x3666 (and z_2_42 z_2_43 z_2_44 z_2_45 z_2_46 z_2_47 z_2_48 z_2_49 z_2_50)))
 (= z_0_42 $x3666)))
(assert
 (let (($x3668 (and z_2_43 z_2_44 z_2_45 z_2_46 z_2_47 z_2_48 z_2_49 z_2_50)))
 (= z_0_43 $x3668)))
(assert
 (= z_0_44 (and z_2_44 z_2_45 z_2_46 z_2_47 z_2_48 z_2_49 z_2_50)))
(assert
 (= z_0_45 (and z_2_45 z_2_46 z_2_47 z_2_48 z_2_49 z_2_50)))
(assert
 (= z_0_46 (and z_2_46 z_2_47 z_2_48 z_2_49 z_2_50 z_2_45)))
(assert
 (= z_0_47 (and z_2_47 z_2_48 z_2_49 z_2_50 z_2_45 z_2_46)))
(assert
 (= z_0_48 (and z_2_48 z_2_49 z_2_50 z_2_45 z_2_46 z_2_47)))
(assert
 (= z_0_49 (and z_2_49 z_2_50 z_2_45 z_2_46 z_2_47 z_2_48)))
(assert
 (= z_0_50 (and z_2_50 z_2_45 z_2_46 z_2_47 z_2_48 z_2_49)))
(assert
 (= z_0_51 (and z_2_51 z_2_52 z_2_53 z_2_54 z_2_55 z_2_56 z_2_57)))
(assert
 (= z_0_52 (and z_2_52 z_2_53 z_2_54 z_2_55 z_2_56 z_2_57)))
(assert
 (= z_0_53 (and z_2_53 z_2_54 z_2_55 z_2_56 z_2_57)))
(assert
 (= z_0_54 (and z_2_54 z_2_55 z_2_56 z_2_57)))
(assert
 (= z_0_55 (and z_2_55 z_2_56 z_2_57)))
(assert
 (= z_0_56 (and z_2_56 z_2_57)))
(assert
 (= z_0_57 (and z_2_57 z_2_56)))
(assert
 (let (($x3717 (and z_2_58 z_2_59 z_2_60 z_2_61 z_2_62 z_2_63 z_2_64 z_2_65 z_2_66 z_2_67 z_2_68 z_2_69)))
 (= z_0_58 $x3717)))
(assert
 (let (($x3719 (and z_2_59 z_2_60 z_2_61 z_2_62 z_2_63 z_2_64 z_2_65 z_2_66 z_2_67 z_2_68 z_2_69)))
 (= z_0_59 $x3719)))
(assert
 (let (($x3721 (and z_2_60 z_2_61 z_2_62 z_2_63 z_2_64 z_2_65 z_2_66 z_2_67 z_2_68 z_2_69)))
 (= z_0_60 $x3721)))
(assert
 (let (($x3723 (and z_2_61 z_2_62 z_2_63 z_2_64 z_2_65 z_2_66 z_2_67 z_2_68 z_2_69)))
 (= z_0_61 $x3723)))
(assert
 (let (($x3725 (and z_2_62 z_2_63 z_2_64 z_2_65 z_2_66 z_2_67 z_2_68 z_2_69)))
 (= z_0_62 $x3725)))
(assert
 (= z_0_63 (and z_2_63 z_2_64 z_2_65 z_2_66 z_2_67 z_2_68 z_2_69)))
(assert
 (= z_0_64 (and z_2_64 z_2_65 z_2_66 z_2_67 z_2_68 z_2_69)))
(assert
 (= z_0_65 (and z_2_65 z_2_66 z_2_67 z_2_68 z_2_69 z_2_64)))
(assert
 (= z_0_66 (and z_2_66 z_2_67 z_2_68 z_2_69 z_2_64 z_2_65)))
(assert
 (= z_0_67 (and z_2_67 z_2_68 z_2_69 z_2_64 z_2_65 z_2_66)))
(assert
 (= z_0_68 (and z_2_68 z_2_69 z_2_64 z_2_65 z_2_66 z_2_67)))
(assert
 (= z_0_69 (and z_2_69 z_2_64 z_2_65 z_2_66 z_2_67 z_2_68)))
(assert
 (let (($x3745 (and z_2_70 z_2_71 z_2_72 z_2_73 z_2_17 z_2_18 z_2_19 z_2_16)))
 (= z_0_70 $x3745)))
(assert
 (= z_0_71 (and z_2_71 z_2_72 z_2_73 z_2_17 z_2_18 z_2_19 z_2_16)))
(assert
 (= z_0_72 (and z_2_72 z_2_73 z_2_17 z_2_18 z_2_19 z_2_16)))
(assert
 (= z_0_73 (and z_2_73 z_2_17 z_2_18 z_2_19 z_2_16)))
(assert
 (let (($x3758 (and z_2_74 z_2_75 z_2_76 z_2_77 z_2_78 z_2_66 z_2_67 z_2_68 z_2_69 z_2_64 z_2_65)))
 (= z_0_74 $x3758)))
(assert
 (let (($x3760 (and z_2_75 z_2_76 z_2_77 z_2_78 z_2_66 z_2_67 z_2_68 z_2_69 z_2_64 z_2_65)))
 (= z_0_75 $x3760)))
(assert
 (let (($x3762 (and z_2_76 z_2_77 z_2_78 z_2_66 z_2_67 z_2_68 z_2_69 z_2_64 z_2_65)))
 (= z_0_76 $x3762)))
(assert
 (let (($x3764 (and z_2_77 z_2_78 z_2_66 z_2_67 z_2_68 z_2_69 z_2_64 z_2_65)))
 (= z_0_77 $x3764)))
(assert
 (= z_0_78 (and z_2_78 z_2_66 z_2_67 z_2_68 z_2_69 z_2_64 z_2_65)))
(assert
 (let (($x3777 (and z_2_79 z_2_80 z_2_81 z_2_82 z_2_83 z_2_84 z_2_85 z_2_86 z_2_87)))
 (= z_0_79 $x3777)))
(assert
 (let (($x3779 (and z_2_80 z_2_81 z_2_82 z_2_83 z_2_84 z_2_85 z_2_86 z_2_87)))
 (= z_0_80 $x3779)))
(assert
 (= z_0_81 (and z_2_81 z_2_82 z_2_83 z_2_84 z_2_85 z_2_86 z_2_87)))
(assert
 (= z_0_82 (and z_2_82 z_2_83 z_2_84 z_2_85 z_2_86 z_2_87)))
(assert
 (= z_0_83 (and z_2_83 z_2_84 z_2_85 z_2_86 z_2_87)))
(assert
 (= z_0_84 (and z_2_84 z_2_85 z_2_86 z_2_87 z_2_83)))
(assert
 (= z_0_85 (and z_2_85 z_2_86 z_2_87 z_2_83 z_2_84)))
(assert
 (= z_0_86 (and z_2_86 z_2_87 z_2_83 z_2_84 z_2_85)))
(assert
 (= z_0_87 (and z_2_87 z_2_83 z_2_84 z_2_85 z_2_86)))
(assert
 (let (($x3807 (and z_2_88 z_2_89 z_2_90 z_2_91 z_2_92 z_2_93 z_2_94 z_2_95 z_2_96 z_2_97 z_2_98 z_2_99)))
 (= z_0_88 $x3807)))
(assert
 (let (($x3809 (and z_2_89 z_2_90 z_2_91 z_2_92 z_2_93 z_2_94 z_2_95 z_2_96 z_2_97 z_2_98 z_2_99)))
 (= z_0_89 $x3809)))
(assert
 (let (($x3811 (and z_2_90 z_2_91 z_2_92 z_2_93 z_2_94 z_2_95 z_2_96 z_2_97 z_2_98 z_2_99)))
 (= z_0_90 $x3811)))
(assert
 (let (($x3813 (and z_2_91 z_2_92 z_2_93 z_2_94 z_2_95 z_2_96 z_2_97 z_2_98 z_2_99)))
 (= z_0_91 $x3813)))
(assert
 (let (($x3815 (and z_2_92 z_2_93 z_2_94 z_2_95 z_2_96 z_2_97 z_2_98 z_2_99)))
 (= z_0_92 $x3815)))
(assert
 (= z_0_93 (and z_2_93 z_2_94 z_2_95 z_2_96 z_2_97 z_2_98 z_2_99)))
(assert
 (= z_0_94 (and z_2_94 z_2_95 z_2_96 z_2_97 z_2_98 z_2_99)))
(assert
 (= z_0_95 (and z_2_95 z_2_96 z_2_97 z_2_98 z_2_99 z_2_94)))
(assert
 (= z_0_96 (and z_2_96 z_2_97 z_2_98 z_2_99 z_2_94 z_2_95)))
(assert
 (= z_0_97 (and z_2_97 z_2_98 z_2_99 z_2_94 z_2_95 z_2_96)))
(assert
 (= z_0_98 (and z_2_98 z_2_99 z_2_94 z_2_95 z_2_96 z_2_97)))
(assert
 (= z_0_99 (and z_2_99 z_2_94 z_2_95 z_2_96 z_2_97 z_2_98)))
(assert
 (let (($x3841 (and z_2_100 z_2_101 z_2_102 z_2_103 z_2_104 z_2_105 z_2_106 z_2_107 z_2_108 z_2_109)))
 (= z_0_100 $x3841)))
(assert
 (let (($x3843 (and z_2_101 z_2_102 z_2_103 z_2_104 z_2_105 z_2_106 z_2_107 z_2_108 z_2_109)))
 (= z_0_101 $x3843)))
(assert
 (let (($x3845 (and z_2_102 z_2_103 z_2_104 z_2_105 z_2_106 z_2_107 z_2_108 z_2_109)))
 (= z_0_102 $x3845)))
(assert
 (let (($x3847 (and z_2_103 z_2_104 z_2_105 z_2_106 z_2_107 z_2_108 z_2_109)))
 (= z_0_103 $x3847)))
(assert
 (= z_0_104 (and z_2_104 z_2_105 z_2_106 z_2_107 z_2_108 z_2_109)))
(assert
 (= z_0_105 (and z_2_105 z_2_106 z_2_107 z_2_108 z_2_109)))
(assert
 (= z_0_106 (and z_2_106 z_2_107 z_2_108 z_2_109)))
(assert
 (= z_0_107 (and z_2_107 z_2_108 z_2_109 z_2_106)))
(assert
 (= z_0_108 (and z_2_108 z_2_109 z_2_106 z_2_107)))
(assert
 (= z_0_109 (and z_2_109 z_2_106 z_2_107 z_2_108)))
(assert
 (let (($x3866 (and z_2_110 z_2_111 z_2_112 z_2_113 z_2_114 z_2_19 z_2_16 z_2_17 z_2_18)))
 (= z_0_110 $x3866)))
(assert
 (let (($x3868 (and z_2_111 z_2_112 z_2_113 z_2_114 z_2_19 z_2_16 z_2_17 z_2_18)))
 (= z_0_111 $x3868)))
(assert
 (= z_0_112 (and z_2_112 z_2_113 z_2_114 z_2_19 z_2_16 z_2_17 z_2_18)))
(assert
 (= z_0_113 (and z_2_113 z_2_114 z_2_19 z_2_16 z_2_17 z_2_18)))
(assert
 (= z_0_114 (and z_2_114 z_2_19 z_2_16 z_2_17 z_2_18)))
(assert
 (= z_0_115 (and z_2_115 z_2_116 z_2_117 z_2_118 z_2_119)))
(assert
 (= z_0_116 (and z_2_116 z_2_117 z_2_118 z_2_119)))
(assert
 (= z_0_117 (and z_2_117 z_2_118 z_2_119)))
(assert
 (= z_0_118 (and z_2_118 z_2_119)))
(assert
 (= z_0_119 (and z_2_119)))
(assert
 (let (($x3897 (and z_2_120 z_2_121 z_2_122 z_2_123 z_2_124 z_2_28 z_2_29 z_2_30 z_2_25 z_2_26 z_2_27)))
 (= z_0_120 $x3897)))
(assert
 (let (($x3899 (and z_2_121 z_2_122 z_2_123 z_2_124 z_2_28 z_2_29 z_2_30 z_2_25 z_2_26 z_2_27)))
 (= z_0_121 $x3899)))
(assert
 (let (($x3901 (and z_2_122 z_2_123 z_2_124 z_2_28 z_2_29 z_2_30 z_2_25 z_2_26 z_2_27)))
 (= z_0_122 $x3901)))
(assert
 (let (($x3903 (and z_2_123 z_2_124 z_2_28 z_2_29 z_2_30 z_2_25 z_2_26 z_2_27)))
 (= z_0_123 $x3903)))
(assert
 (= z_0_124 (and z_2_124 z_2_28 z_2_29 z_2_30 z_2_25 z_2_26 z_2_27)))
(assert
 (let (($x3915 (and z_2_125 z_2_126 z_2_127 z_2_128 z_2_129 z_2_130 z_2_131 z_2_132)))
 (= z_0_125 $x3915)))
(assert
 (let (($x3917 (and z_2_126 z_2_127 z_2_128 z_2_129 z_2_130 z_2_131 z_2_132)))
 (= z_0_126 $x3917)))
(assert
 (= z_0_127 (and z_2_127 z_2_128 z_2_129 z_2_130 z_2_131 z_2_132)))
(assert
 (= z_0_128 (and z_2_128 z_2_129 z_2_130 z_2_131 z_2_132)))
(assert
 (= z_0_129 (and z_2_129 z_2_130 z_2_131 z_2_132 z_2_128)))
(assert
 (= z_0_130 (and z_2_130 z_2_131 z_2_132 z_2_128 z_2_129)))
(assert
 (= z_0_131 (and z_2_131 z_2_132 z_2_128 z_2_129 z_2_130)))
(assert
 (= z_0_132 (and z_2_132 z_2_128 z_2_129 z_2_130 z_2_131)))
(assert
 (= z_0_133 (and z_2_133 z_2_67 z_2_68 z_2_69 z_2_64 z_2_65 z_2_66)))
(assert
 (let (($x3939 (and z_2_134 z_2_135 z_2_136 z_2_137 z_2_138 z_2_73 z_2_17 z_2_18 z_2_19 z_2_16)))
 (= z_0_134 $x3939)))
(assert
 (let (($x3941 (and z_2_135 z_2_136 z_2_137 z_2_138 z_2_73 z_2_17 z_2_18 z_2_19 z_2_16)))
 (= z_0_135 $x3941)))
(assert
 (let (($x3943 (and z_2_136 z_2_137 z_2_138 z_2_73 z_2_17 z_2_18 z_2_19 z_2_16)))
 (= z_0_136 $x3943)))
(assert
 (= z_0_137 (and z_2_137 z_2_138 z_2_73 z_2_17 z_2_18 z_2_19 z_2_16)))
(assert
 (= z_0_138 (and z_2_138 z_2_73 z_2_17 z_2_18 z_2_19 z_2_16)))
(assert
 (let (($x3955 (and z_2_139 z_2_140 z_2_141 z_2_142 z_2_143 z_2_144 z_2_18 z_2_19 z_2_16 z_2_17)))
 (= z_0_139 $x3955)))
(assert
 (let (($x3957 (and z_2_140 z_2_141 z_2_142 z_2_143 z_2_144 z_2_18 z_2_19 z_2_16 z_2_17)))
 (= z_0_140 $x3957)))
(assert
 (let (($x3959 (and z_2_141 z_2_142 z_2_143 z_2_144 z_2_18 z_2_19 z_2_16 z_2_17)))
 (= z_0_141 $x3959)))
(assert
 (= z_0_142 (and z_2_142 z_2_143 z_2_144 z_2_18 z_2_19 z_2_16 z_2_17)))
(assert
 (= z_0_143 (and z_2_143 z_2_144 z_2_18 z_2_19 z_2_16 z_2_17)))
(assert
 (= z_0_144 (and z_2_144 z_2_18 z_2_19 z_2_16 z_2_17)))
(assert
 (let (($x3971 (and z_2_145 z_2_146 z_2_147 z_2_148 z_2_107 z_2_108 z_2_109 z_2_106)))
 (= z_0_145 $x3971)))
(assert
 (let (($x3973 (and z_2_146 z_2_147 z_2_148 z_2_107 z_2_108 z_2_109 z_2_106)))
 (= z_0_146 $x3973)))
(assert
 (= z_0_147 (and z_2_147 z_2_148 z_2_107 z_2_108 z_2_109 z_2_106)))
(assert
 (= z_0_148 (and z_2_148 z_2_107 z_2_108 z_2_109 z_2_106)))
(assert
 (let (($x3988 (and z_2_149 z_2_150 z_2_151 z_2_152 z_2_153 z_2_154 z_2_155 z_2_156 z_2_157 z_2_108 z_2_109 z_2_106 z_2_107)))
 (= z_0_149 $x3988)))
(assert
 (let (($x3990 (and z_2_150 z_2_151 z_2_152 z_2_153 z_2_154 z_2_155 z_2_156 z_2_157 z_2_108 z_2_109 z_2_106 z_2_107)))
 (= z_0_150 $x3990)))
(assert
 (let (($x3992 (and z_2_151 z_2_152 z_2_153 z_2_154 z_2_155 z_2_156 z_2_157 z_2_108 z_2_109 z_2_106 z_2_107)))
 (= z_0_151 $x3992)))
(assert
 (let (($x3994 (and z_2_152 z_2_153 z_2_154 z_2_155 z_2_156 z_2_157 z_2_108 z_2_109 z_2_106 z_2_107)))
 (= z_0_152 $x3994)))
(assert
 (let (($x3996 (and z_2_153 z_2_154 z_2_155 z_2_156 z_2_157 z_2_108 z_2_109 z_2_106 z_2_107)))
 (= z_0_153 $x3996)))
(assert
 (let (($x3998 (and z_2_154 z_2_155 z_2_156 z_2_157 z_2_108 z_2_109 z_2_106 z_2_107)))
 (= z_0_154 $x3998)))
(assert
 (let (($x4000 (and z_2_155 z_2_156 z_2_157 z_2_108 z_2_109 z_2_106 z_2_107)))
 (= z_0_155 $x4000)))
(assert
 (= z_0_156 (and z_2_156 z_2_157 z_2_108 z_2_109 z_2_106 z_2_107)))
(assert
 (= z_0_157 (and z_2_157 z_2_108 z_2_109 z_2_106 z_2_107)))
(assert
 (and true true))
(assert
 (=> x_2_p z_2_0))
(assert
 (let (($x4029 (not z_2_1)))
 (=> x_2_p $x4029)))
(assert
 (=> x_2_p z_2_2))
(assert
 (=> x_2_p z_2_3))
(assert
 (=> x_2_p z_2_4))
(assert
 (=> x_2_p z_2_5))
(assert
 (let (($x4040 (not z_2_6)))
 (=> x_2_p $x4040)))
(assert
 (=> x_2_p z_2_7))
(assert
 (=> x_2_p z_2_8))
(assert
 (let (($x4047 (not z_2_9)))
 (=> x_2_p $x4047)))
(assert
 (=> x_2_p z_2_10))
(assert
 (=> x_2_p z_2_11))
(assert
 (let (($x4054 (not z_2_12)))
 (=> x_2_p $x4054)))
(assert
 (let (($x4057 (not z_2_13)))
 (=> x_2_p $x4057)))
(assert
 (let (($x4060 (not z_2_14)))
 (=> x_2_p $x4060)))
(assert
 (let (($x4063 (not z_2_15)))
 (=> x_2_p $x4063)))
(assert
 (=> x_2_p z_2_16))
(assert
 (let (($x4068 (not z_2_17)))
 (=> x_2_p $x4068)))
(assert
 (let (($x4071 (not z_2_18)))
 (=> x_2_p $x4071)))
(assert
 (=> x_2_p z_2_19))
(assert
 (=> x_2_p z_2_20))
(assert
 (=> x_2_p z_2_21))
(assert
 (let (($x4080 (not z_2_22)))
 (=> x_2_p $x4080)))
(assert
 (=> x_2_p z_2_23))
(assert
 (=> x_2_p z_2_24))
(assert
 (=> x_2_p z_2_25))
(assert
 (=> x_2_p z_2_26))
(assert
 (=> x_2_p z_2_27))
(assert
 (=> x_2_p z_2_28))
(assert
 (let (($x4095 (not z_2_29)))
 (=> x_2_p $x4095)))
(assert
 (let (($x4098 (not z_2_30)))
 (=> x_2_p $x4098)))
(assert
 (let (($x4101 (not z_2_31)))
 (=> x_2_p $x4101)))
(assert
 (let (($x4104 (not z_2_32)))
 (=> x_2_p $x4104)))
(assert
 (let (($x4107 (not z_2_33)))
 (=> x_2_p $x4107)))
(assert
 (let (($x4110 (not z_2_34)))
 (=> x_2_p $x4110)))
(assert
 (let (($x4113 (not z_2_35)))
 (=> x_2_p $x4113)))
(assert
 (=> x_2_p z_2_36))
(assert
 (=> x_2_p z_2_37))
(assert
 (=> x_2_p z_2_38))
(assert
 (=> x_2_p z_2_39))
(assert
 (let (($x4124 (not z_2_40)))
 (=> x_2_p $x4124)))
(assert
 (=> x_2_p z_2_41))
(assert
 (let (($x4129 (not z_2_42)))
 (=> x_2_p $x4129)))
(assert
 (=> x_2_p z_2_43))
(assert
 (let (($x4134 (not z_2_44)))
 (=> x_2_p $x4134)))
(assert
 (=> x_2_p z_2_45))
(assert
 (let (($x4139 (not z_2_46)))
 (=> x_2_p $x4139)))
(assert
 (let (($x4142 (not z_2_47)))
 (=> x_2_p $x4142)))
(assert
 (let (($x4145 (not z_2_48)))
 (=> x_2_p $x4145)))
(assert
 (let (($x4148 (not z_2_49)))
 (=> x_2_p $x4148)))
(assert
 (=> x_2_p z_2_50))
(assert
 (let (($x4153 (not z_2_51)))
 (=> x_2_p $x4153)))
(assert
 (let (($x4156 (not z_2_52)))
 (=> x_2_p $x4156)))
(assert
 (let (($x4159 (not z_2_53)))
 (=> x_2_p $x4159)))
(assert
 (=> x_2_p z_2_54))
(assert
 (=> x_2_p z_2_55))
(assert
 (=> x_2_p z_2_56))
(assert
 (let (($x4168 (not z_2_57)))
 (=> x_2_p $x4168)))
(assert
 (let (($x4171 (not z_2_58)))
 (=> x_2_p $x4171)))
(assert
 (let (($x4174 (not z_2_59)))
 (=> x_2_p $x4174)))
(assert
 (=> x_2_p z_2_60))
(assert
 (let (($x4179 (not z_2_61)))
 (=> x_2_p $x4179)))
(assert
 (let (($x4182 (not z_2_62)))
 (=> x_2_p $x4182)))
(assert
 (let (($x4185 (not z_2_63)))
 (=> x_2_p $x4185)))
(assert
 (let (($x4188 (not z_2_64)))
 (=> x_2_p $x4188)))
(assert
 (let (($x4191 (not z_2_65)))
 (=> x_2_p $x4191)))
(assert
 (=> x_2_p z_2_66))
(assert
 (let (($x4196 (not z_2_67)))
 (=> x_2_p $x4196)))
(assert
 (=> x_2_p z_2_68))
(assert
 (=> x_2_p z_2_69))
(assert
 (=> x_2_p z_2_70))
(assert
 (=> x_2_p z_2_71))
(assert
 (=> x_2_p z_2_72))
(assert
 (let (($x4209 (not z_2_73)))
 (=> x_2_p $x4209)))
(assert
 (=> x_2_p z_2_74))
(assert
 (let (($x4214 (not z_2_75)))
 (=> x_2_p $x4214)))
(assert
 (let (($x4217 (not z_2_76)))
 (=> x_2_p $x4217)))
(assert
 (let (($x4220 (not z_2_77)))
 (=> x_2_p $x4220)))
(assert
 (=> x_2_p z_2_78))
(assert
 (=> x_2_p z_2_79))
(assert
 (let (($x4227 (not z_2_80)))
 (=> x_2_p $x4227)))
(assert
 (let (($x4230 (not z_2_81)))
 (=> x_2_p $x4230)))
(assert
 (=> x_2_p z_2_82))
(assert
 (let (($x4235 (not z_2_83)))
 (=> x_2_p $x4235)))
(assert
 (=> x_2_p z_2_84))
(assert
 (let (($x4240 (not z_2_85)))
 (=> x_2_p $x4240)))
(assert
 (let (($x4243 (not z_2_86)))
 (=> x_2_p $x4243)))
(assert
 (let (($x4246 (not z_2_87)))
 (=> x_2_p $x4246)))
(assert
 (let (($x4249 (not z_2_88)))
 (=> x_2_p $x4249)))
(assert
 (let (($x4252 (not z_2_89)))
 (=> x_2_p $x4252)))
(assert
 (let (($x4255 (not z_2_90)))
 (=> x_2_p $x4255)))
(assert
 (=> x_2_p z_2_91))
(assert
 (let (($x4260 (not z_2_92)))
 (=> x_2_p $x4260)))
(assert
 (=> x_2_p z_2_93))
(assert
 (let (($x4265 (not z_2_94)))
 (=> x_2_p $x4265)))
(assert
 (let (($x4268 (not z_2_95)))
 (=> x_2_p $x4268)))
(assert
 (=> x_2_p z_2_96))
(assert
 (let (($x4273 (not z_2_97)))
 (=> x_2_p $x4273)))
(assert
 (let (($x4276 (not z_2_98)))
 (=> x_2_p $x4276)))
(assert
 (let (($x4279 (not z_2_99)))
 (=> x_2_p $x4279)))
(assert
 (=> x_2_p z_2_100))
(assert
 (=> x_2_p z_2_101))
(assert
 (let (($x4286 (not z_2_102)))
 (=> x_2_p $x4286)))
(assert
 (let (($x4289 (not z_2_103)))
 (=> x_2_p $x4289)))
(assert
 (=> x_2_p z_2_104))
(assert
 (let (($x4294 (not z_2_105)))
 (=> x_2_p $x4294)))
(assert
 (=> x_2_p z_2_106))
(assert
 (let (($x4299 (not z_2_107)))
 (=> x_2_p $x4299)))
(assert
 (=> x_2_p z_2_108))
(assert
 (=> x_2_p z_2_109))
(assert
 (let (($x4306 (not z_2_110)))
 (=> x_2_p $x4306)))
(assert
 (let (($x4309 (not z_2_111)))
 (=> x_2_p $x4309)))
(assert
 (let (($x4312 (not z_2_112)))
 (=> x_2_p $x4312)))
(assert
 (let (($x4315 (not z_2_113)))
 (=> x_2_p $x4315)))
(assert
 (=> x_2_p z_2_114))
(assert
 (let (($x4320 (not z_2_115)))
 (=> x_2_p $x4320)))
(assert
 (let (($x4323 (not z_2_116)))
 (=> x_2_p $x4323)))
(assert
 (let (($x4326 (not z_2_117)))
 (=> x_2_p $x4326)))
(assert
 (=> x_2_p z_2_118))
(assert
 (let (($x4331 (not z_2_119)))
 (=> x_2_p $x4331)))
(assert
 (let (($x4334 (not z_2_120)))
 (=> x_2_p $x4334)))
(assert
 (let (($x4337 (not z_2_121)))
 (=> x_2_p $x4337)))
(assert
 (=> x_2_p z_2_122))
(assert
 (let (($x4342 (not z_2_123)))
 (=> x_2_p $x4342)))
(assert
 (let (($x4345 (not z_2_124)))
 (=> x_2_p $x4345)))
(assert
 (let (($x4348 (not z_2_125)))
 (=> x_2_p $x4348)))
(assert
 (let (($x4351 (not z_2_126)))
 (=> x_2_p $x4351)))
(assert
 (=> x_2_p z_2_127))
(assert
 (let (($x4356 (not z_2_128)))
 (=> x_2_p $x4356)))
(assert
 (=> x_2_p z_2_129))
(assert
 (=> x_2_p z_2_130))
(assert
 (let (($x4363 (not z_2_131)))
 (=> x_2_p $x4363)))
(assert
 (let (($x4366 (not z_2_132)))
 (=> x_2_p $x4366)))
(assert
 (let (($x4369 (not z_2_133)))
 (=> x_2_p $x4369)))
(assert
 (let (($x4372 (not z_2_134)))
 (=> x_2_p $x4372)))
(assert
 (=> x_2_p z_2_135))
(assert
 (let (($x4377 (not z_2_136)))
 (=> x_2_p $x4377)))
(assert
 (let (($x4380 (not z_2_137)))
 (=> x_2_p $x4380)))
(assert
 (let (($x4383 (not z_2_138)))
 (=> x_2_p $x4383)))
(assert
 (let (($x4386 (not z_2_139)))
 (=> x_2_p $x4386)))
(assert
 (let (($x4389 (not z_2_140)))
 (=> x_2_p $x4389)))
(assert
 (=> x_2_p z_2_141))
(assert
 (let (($x4394 (not z_2_142)))
 (=> x_2_p $x4394)))
(assert
 (let (($x4397 (not z_2_143)))
 (=> x_2_p $x4397)))
(assert
 (=> x_2_p z_2_144))
(assert
 (=> x_2_p z_2_145))
(assert
 (let (($x4404 (not z_2_146)))
 (=> x_2_p $x4404)))
(assert
 (=> x_2_p z_2_147))
(assert
 (let (($x4409 (not z_2_148)))
 (=> x_2_p $x4409)))
(assert
 (=> x_2_p z_2_149))
(assert
 (let (($x4414 (not z_2_150)))
 (=> x_2_p $x4414)))
(assert
 (let (($x4417 (not z_2_151)))
 (=> x_2_p $x4417)))
(assert
 (let (($x4420 (not z_2_152)))
 (=> x_2_p $x4420)))
(assert
 (let (($x4423 (not z_2_153)))
 (=> x_2_p $x4423)))
(assert
 (let (($x4426 (not z_2_154)))
 (=> x_2_p $x4426)))
(assert
 (=> x_2_p z_2_155))
(assert
 (let (($x4431 (not z_2_156)))
 (=> x_2_p $x4431)))
(assert
 (=> x_2_p z_2_157))
(assert
 (or x_2_p))
(assert
 (let (($x4024 (not x_2_->)))
 (let (($x4022 (not x_2_U)))
 (let (($x4020 (not x_2_v)))
 (let (($x4018 (not x_2_&)))
 (let (($x4016 (not x_2_X)))
 (let (($x4014 (not x_2_!)))
 (let (($x4012 (not x_2_F)))
 (let (($x4010 (not x_2_G)))
 (and $x4010 $x4012 $x4014 $x4016 $x4018 $x4020 $x4022 $x4024))))))))))
(check-sat)

